
--- Job Nonlinear.gms Start 01/29/20 16:46:14 30.1.0 re01a340 WEX-WEI x86 64bit/MS Windows
--- GAMS Parameters defined
    Input C:\Users\debernal\Dropbox\CMU\Research\StableSet\GAMS\Nonlinear.gms
    PageWidth 80
    PageSize 0
    PageContr 3
    Action CE
    ScrDir C:\Users\debernal\Dropbox\CMU\Research\StableSet\GAMS\225a\
    SysDir C:\GAMS\win64\30.1\
    WorkDir C:\Users\debernal\Dropbox\CMU\Research\StableSet\GAMS\
    LogOption 3
    DFormat 0
    TFormat 0
    ErrorLog 99
    LimRow 50
    IDE 1
    OptCR 0
GAMS 30.1.0   Copyright (C) 1987-2020 GAMS Development. All rights reserved
Licensee: Eval License Carnegie Mellon University        G191212/0001AB-GEN
          Dept. of Chemical Engineering                              DCE375
          Evaluation license: Not for commercial or production use
--- Starting compilation
--- Nonlinear.gms(1) 2 Mb
--- . cycle.inc(10) 3 Mb
--- Nonlinear.gms(24) 3 Mb
--- Starting execution: elapsed 0:00:00.005
--- Nonlinear.gms(30) 4 Mb
--- Generating MIQCP model stableset
--- Nonlinear.gms(32) 7 Mb
---   1,503 rows  1,503 columns  4,507 non-zeroes
---   6,009 nl-code  3,004 nl-non-zeroes
---   1,502 discrete-columns
--- Nonlinear.gms(32) 5 Mb
--- Executing GUROBI: elapsed 0:00:00.877

Gurobi           30.1.0 re01a340 Released Jan 10, 2020 WEI x86 64bit/MS Window

Academic license - for non-commercial use only
GAMS/Gurobi demo/community requires a Gurobi license from Gurobi Optimization.
Gurobi library version 9.0.0
Space for names approximately 0.02 Mb
Use option 'names no' to turn use of names off
Starting Gurobi...
Gurobi Optimizer version 9.0.0 build v9.0.0rc2 (win64)
Optimize a model with 0 rows, 1502 columns and 0 nonzeros
Model fingerprint: 0xe8666d47
Model has 1502 quadratic constraints
Variable types: 0 continuous, 1502 integer (1502 binary)
Coefficient statistics:
  Matrix range     [0e+00, 0e+00]
  QMatrix range    [1e+00, 1e+00]
  Objective range  [1e+00, 1e+00]
  Bounds range     [1e+00, 1e+00]
  RHS range        [0e+00, 0e+00]
Found heuristic solution: objective -0.0000000
Presolve added 1502 rows and 0 columns
Presolve time: 0.01s
Presolved: 1502 rows, 1502 columns, 3004 nonzeros
Variable types: 0 continuous, 1502 integer (1502 binary)

Root relaxation: objective 7.510000e+02, 0 iterations, 0.00 seconds

    Nodes    |    Current Node    |     Objective Bounds      |     Work
 Expl Unexpl |  Obj  Depth IntInf | Incumbent    BestBd   Gap | It/Node Time

*    0     0               0     751.0000000  751.00000  0.00%     -    0s

Explored 0 nodes (0 simplex iterations) in 0.02 seconds
Thread count was 1 (of 8 available processors)

Solution count 2: 751 -0 

Optimal solution found (tolerance 0.00e+00)
Best objective 7.510000000000e+02, best bound 7.510000000000e+02, gap 0.0000%

User-callback calls 45, time in user-callback 0.00 sec
MIQCP status(2): Model was solved to optimality (subject to tolerances).

Solving fixed MIQCP.
Gurobi Optimizer version 9.0.0 build v9.0.0rc2 (win64)
Optimize a model with 0 rows, 1502 columns and 0 nonzeros
Model fingerprint: 0x4c14efc9
Model has 1502 quadratic constraints
Coefficient statistics:
  Matrix range     [0e+00, 0e+00]
  QMatrix range    [1e+00, 1e+00]
  Objective range  [1e+00, 1e+00]
  Bounds range     [1e+00, 1e+00]
  RHS range        [0e+00, 0e+00]
Presolve removed 0 rows and 1502 columns
Presolve time: 0.00s
Presolve: All rows and columns removed

Barrier solved model in 0 iterations and 0.00 seconds
Optimal objective 7.51000000e+02
Solving KKT system to obtain QCP duals...

Optimize a model with 1502 rows, 1502 columns and 1502 nonzeros
Model fingerprint: 0x80793038
Coefficient statistics:
  Matrix range     [1e+00, 1e+00]
  Objective range  [1e+00, 3e+00]
  QObjective range [2e+00, 2e+00]
  Bounds range     [1e+00, 1e+00]
  RHS range        [0e+00, 0e+00]
Presolve removed 1502 rows and 1502 columns
Presolve time: 0.01s
Presolve: All rows and columns removed

Barrier solved model in 0 iterations and 0.01 seconds
Optimal objective 7.51000000e+02


User-callback calls 68, time in user-callback 0.00 sec
Fixed MIQCP status(2): Model was solved to optimality (subject to tolerances).

MIQCP Solution:        751.000000    (0 iterations, 0 nodes)
Final Solve:           751.000000    (0 iterations)

Best possible:         751.000000
Absolute gap:            0.000000
Relative gap:            0.000000

--- Restarting execution
--- Nonlinear.gms(32) 2 Mb
--- Reading solution for model stableset
--- Executing after solve: elapsed 0:00:01.100
--- Nonlinear.gms(34) 3 Mb
*** Status: Normal completion
--- Job Nonlinear.gms Stop 01/29/20 16:46:16 elapsed 0:00:01.117
